<number of tasks>
50

<cycle time>
1000

<order strength>
0.202


<task times>
1 41
2 273
3 542
4 489
5 78
6 548
7 182
8 466
9 271
10 211
11 110
12 112
13 94
14 248
15 79
16 208
17 27
18 122
19 30
20 231
21 436
22 131
23 220
24 42
25 239
26 306
27 522
28 129
29 36
30 543
31 386
32 475
33 375
34 31
35 89
36 470
37 172
38 112
39 521
40 257
41 123
42 39
43 541
44 178
45 157
46 273
47 314
48 501
49 139
50 138

<precedence relations>
1,9
1,12
1,13
1,14
2,7
2,11
2,14
3,8
4,6
4,10
4,14
8,18
8,21
9,17
11,42
12,16
12,19
13,17
13,22
14,15
14,20
15,21
15,46
16,21
17,24
17,44
18,23
20,22
21,36
23,25
23,26
23,29
24,27
24,28
25,32
27,30
27,33
27,34
29,31
30,39
31,36
32,35
32,38
32,40
33,37
33,41
35,43
36,44
36,45
37,42
37,46
38,43
38,47
38,49
40,44
40,48
40,50

<end>
